Nb of jobs, Nb of Machines, Time seed, Machine seed, Upper bound, Lower bound
3,10,-1,-1,-1,-1
Times
9,56,59,6,67,85,98,14,25,74
39,59,2,63,33,48,49,34,56,14
90,17,97,49,24,96,40,34,46,37
Machines
5,1,8,9,2,10,6,3,7,4
1,10,9,6,7,5,3,8,4,2
3,6,1,7,4,10,8,2,5,9
